Problem:    
Rows:       195
Columns:    69 (54 integer, 54 binary)
Non-zeros:  710
Status:     INTEGER OPTIMAL
Objective:  value = 98.211563 (MINimum)

   No.   Row name        Activity     Lower bound   Upper bound
------ ------------    ------------- ------------- -------------
     1 r.5                   1098.21             0               
     2 r.6                  -901.788      -974.567               
     3 r.7                   98.2116             0               
     4 r.8                   98.2116       -955.29               
     5 r.9                   1098.21             0               
     6 r.10                  -958.21      -969.696               
     7 r.11                  98.2116             0               
     8 r.12                  74.1588      -957.126               
     9 r.13                  1098.21             0               
    10 r.14                 -931.202      -975.658               
    11 r.15                  98.2116             0               
    12 r.16                  74.1588      -954.573               
    13 r.17                  98.2116             0               
    14 r.18                 -969.194       -980.68               
    15 r.19                  1098.21             0               
    16 r.20                 -962.268      -975.295               
    17 r.21                  98.2116             0               
    18 r.22                   71.463      -977.097               
    19 r.23                  1098.21             0               
    20 r.24                 -928.537      -967.154               
    21 r.25                  1098.21             0               
    22 r.26                 -990.419      -990.419               
    23 r.27                  98.2116             0               
    24 r.28                 -945.511      -945.511               
    25 r.29                  98.2116             0               
    26 r.30                  98.2116      -981.695               
    27 r.31                  1098.21             0               
    28 r.32                 -901.788      -973.251               
    29 r.33                        1             1             = 
    30 r.34                        1             1             = 
    31 r.35                        1             1             = 
    32 r.36                        1             1             = 
    33 r.37                        1             1             = 
    34 r.38                        1             1             = 
    35 r.39                        1             1             = 
    36 r.40                        2             2               
    37 r.41                       -2         -1001               
    38 r.42                 -56.4211      -969.696               
    39 r.43                     1000             2               
    40 r.44                    -1000         -1001               
    41 r.45                  1975.95      -957.126               
    42 r.46                        2             2               
    43 r.47                       -2         -1001               
    44 r.48                 -29.4139      -975.658               
    45 r.49                     1000             2               
    46 r.50                    -1000         -1001               
    47 r.51                  1975.95      -954.573               
    48 r.52                     1001             2               
    49 r.53                    -1001         -1001               
    50 r.54                  932.595       -980.68               
    51 r.55                     1001             2               
    52 r.56                    -1001         -1001               
    53 r.57                  1939.52      -975.295               
    54 r.58                     1001             2               
    55 r.59                    -1001         -1001               
    56 r.60                  1973.25      -977.097               
    57 r.61                     1001             2               
    58 r.62                    -1001         -1001               
    59 r.63                  1973.25      -967.154               
    60 r.64                 -913.275      -974.567               
    61 r.65                  86.7255       -955.29               
    62 r.66                  45.4916      -974.567               
    63 r.67                  1045.49       -955.29               
    64 r.68                     1001             2               
    65 r.69                    -1001         -1001               
    66 r.70                     2000      -981.695               
    67 r.71                     1001             2               
    68 r.72                    -1001         -1001               
    69 r.73                     2000      -973.251               
    70 r.74                        2             2               
    71 r.75                       -2         -1001               
    72 r.76                  53.7557       25.4334               
    73 r.77                     1000             2               
    74 r.78                    -1000         -1001               
    75 r.79                  2026.75       44.7098               
    76 r.80                        2             2               
    77 r.81                       -2         -1001               
    78 r.82                 -975.658      -975.658               
    79 r.83                     1000             2               
    80 r.84                    -1000         -1001               
    81 r.85                   2002.7      -954.573               
    82 r.86                     1001             2               
    83 r.87                    -1001         -1001               
    84 r.88                   986.35       -980.68               
    85 r.89                     1001             2               
    86 r.90                    -1001         -1001               
    87 r.91                  1966.27      -975.295               
    88 r.92                     1001             2               
    89 r.93                    -1001         -1001               
    90 r.94                  2027.01      -977.097               
    91 r.95                     1001             2               
    92 r.96                    -1001         -1001               
    93 r.97                     2000      -967.154               
    94 r.98                 -969.696      -969.696               
    95 r.99                  62.6727      -957.126               
    96 r.100                -10.9294      -969.696               
    97 r.101                 1021.44      -957.126               
    98 r.102                 53.7557      -981.695               
    99 r.103                -946.244      -973.251               
   100 r.104                 26.7486      -981.695               
   101 r.105                -973.251      -973.251               
   102 r.106                       2             2               
   103 r.107                      -2         -1001               
   104 r.108                 26.7486       25.4334               
   105 r.109                    1000             2               
   106 r.110                   -1000         -1001               
   107 r.111                 2026.75       44.7098               
   108 r.112                       2             2               
   109 r.113                      -2         -1001               
   110 r.114                 970.328       30.3044               
   111 r.115                    1000             2               
   112 r.116                   -1000         -1001               
   113 r.117                  2002.7        42.874               
   114 r.118                  38.944      -975.658               
   115 r.119                 1044.31      -954.573               
   116 r.120                -969.819      -975.658               
   117 r.121                 35.5418      -954.573               
   118 r.122                    1001             2               
   119 r.123                   -1001         -1001               
   120 r.124                    2000      -977.097               
   121 r.125                    1001             2               
   122 r.126                   -1001         -1001               
   123 r.127                    2000      -967.154               
   124 r.128                -942.688      -975.658               
   125 r.129                 62.6727      -954.573               
   126 r.130                 16.0777      -975.658               
   127 r.131                 1021.44      -954.573               
   128 r.132                 26.7486      -981.695               
   129 r.133                -973.251      -973.251               
   130 r.134                 26.7486      -981.695               
   131 r.135                -973.251      -973.251               
   132 r.136                    1001             2               
   133 r.137                   -1001         -1001               
   134 r.138                 3068.36       25.4334               
   135 r.139                    1001             2               
   136 r.140                   -1001         -1001               
   137 r.141                 2059.59       44.7098               
   138 r.142                    1001             2               
   139 r.143                   -1001         -1001               
   140 r.144                 3011.94       30.3044               
   141 r.145                    1001             2               
   142 r.146                   -1001         -1001               
   143 r.147                 2035.54        42.874               
   144 r.148                    1000             2               
   145 r.149                   -1000         -1001               
   146 r.150                 3041.61      -977.097               
   147 r.151                       2             2               
   148 r.152                      -2         -1001               
   149 r.153                -967.154      -967.154               
   150 r.154                 -980.68       -980.68               
   151 r.155                -973.754      -975.295               
   152 r.156                -21.9138       -980.68               
   153 r.157                -14.9877      -975.295               
   154 r.158                 1068.36      -981.695               
   155 r.159                 68.3579      -973.251               
   156 r.160                 59.5946      -981.695               
   157 r.161                -940.405      -973.251               
   158 r.162                    1001             2               
   159 r.163                   -1001         -1001               
   160 r.164                 2026.75       25.4334               
   161 r.165                    1001             2               
   162 r.166                   -1001         -1001               
   163 r.167                 2026.75       44.7098               
   164 r.168                    1001             2               
   165 r.169                   -1001         -1001               
   166 r.170                 1970.33       30.3044               
   167 r.171                    1001             2               
   168 r.172                   -1001         -1001               
   169 r.173                  2002.7        42.874               
   170 r.174                    1001             2               
   171 r.175                   -1001         -1001               
   172 r.176                 1997.33       24.3418               
   173 r.177                    1001             2               
   174 r.178                   -1001         -1001               
   175 r.179                  2002.7       45.4272               
   176 r.180                    1000             2               
   177 r.181                   -1000         -1001               
   178 r.182                 959.343         19.32               
   179 r.183                       2             2               
   180 r.184                      -2         -1001               
   181 r.185                 966.269       24.7052               
   182 r.186                 59.9769      -977.097               
   183 r.187                -940.023      -967.154               
   184 r.188                 1018.74      -977.097               
   185 r.189                  18.743      -967.154               
   186 r.190                 26.7486      -981.695               
   187 r.191                -973.251      -973.251               
   188 r.192                 26.7486      -981.695               
   189 r.193                -973.251      -973.251               
   190 r.194                    1001             2               
   191 r.195                   -1001         -1001               
   192 r.196                    2000       25.4334               
   193 r.197                    1001             2               
   194 r.198                   -1001         -1001               
   195 r.199                    2000       44.7098               

   No. Column name       Activity     Lower bound   Upper bound
------ ------------    ------------- ------------- -------------
     1 tt                    98.2116             0               
     2 s_1_1        *              1             0             1 
     3 t_1_1                       0             0               
     4 s_2_1        *              0             0             1 
     5 t_2_1                       0             0               
     6 s_1_2        *              1             0             1 
     7 t_1_2                 53.7557             0               
     8 s_1_7        *              0             0             1 
     9 s_2_2        *              0             0             1 
    10 t_2_2                 26.7486             0               
    11 s_2_7        *              1             0             1 
    12 s_1_3        *              1             0             1 
    13 t_1_3                 26.7486             0               
    14 s_2_3        *              0             0             1 
    15 t_2_3                 26.7486             0               
    16 s_1_4        *              0             0             1 
    17 t_1_4                 1068.36             0               
    18 s_2_4        *              1             0             1 
    19 t_2_4                 59.5946             0               
    20 s_1_5        *              0             0             1 
    21 t_1_5                 26.7486             0               
    22 s_2_5        *              1             0             1 
    23 t_2_5                 26.7486             0               
    24 s_1_6        *              1             0             1 
    25 t_1_6                 86.7255             0               
    26 s_2_6        *              0             0             1 
    27 t_2_6                 1045.49             0               
    28 t_1_7                       0             0               
    29 t_2_7                       0             0               
    30 r_1_1_2      *              0             0             1 
    31 u_1_1_2      *              0             0             1 
    32 r_2_1_2      *              1             0             1 
    33 u_2_1_2      *              0             0             1 
    34 r_1_1_3      *              0             0             1 
    35 u_1_1_3      *              0             0             1 
    36 r_2_1_3      *              1             0             1 
    37 u_2_1_3      *              0             0             1 
    38 r_1_1_4      *              1             0             1 
    39 u_1_1_4      *              0             0             1 
    40 r_2_1_4      *              1             0             1 
    41 u_2_1_4      *              0             0             1 
    42 r_1_1_5      *              1             0             1 
    43 u_1_1_5      *              0             0             1 
    44 r_2_1_5      *              1             0             1 
    45 u_2_1_5      *              0             0             1 
    46 r_1_1_7      *              1             0             1 
    47 u_1_1_7      *              0             0             1 
    48 r_2_1_7      *              1             0             1 
    49 u_2_1_7      *              0             0             1 
    50 r_1_2_3      *              0             0             1 
    51 u_1_2_3      *              1             0             1 
    52 r_2_2_3      *              1             0             1 
    53 u_2_2_3      *              0             0             1 
    54 r_1_2_4      *              1             0             1 
    55 u_1_2_4      *              0             0             1 
    56 r_2_2_4      *              1             0             1 
    57 u_2_2_4      *              0             0             1 
    58 r_1_2_5      *              1             0             1 
    59 u_1_2_5      *              0             0             1 
    60 r_2_2_5      *              1             0             1 
    61 u_2_2_5      *              0             0             1 
    62 r_1_3_5      *              1             0             1 
    63 u_1_3_5      *              0             0             1 
    64 r_2_3_5      *              1             0             1 
    65 u_2_3_5      *              0             0             1 
    66 r_1_4_5      *              1             0             1 
    67 u_1_4_5      *              0             0             1 
    68 r_2_4_5      *              0             0             1 
    69 u_2_4_5      *              1             0             1 

Integer feasibility conditions:

KKT.PE: max.abs.err = 2.27e-13 on row 10
        max.rel.err = 1.10e-16 on row 10
        High quality

KKT.PB: max.abs.err = 1.14e-13 on row 78
        max.rel.err = 1.17e-16 on row 149
        High quality

End of output
